\ Model CVX
\ LP format - for model browsing. Use MPS format to capture full model detail.
Minimize
  x[0]
Subject To
 (0,0)[0]: - x[0] + beta(0,0) - alpha(0,0)[0] + alpha(0,0)[1] = 0
 (0,0)[1]: - x[1] + beta(0,0) - alpha(0,0)[2] + alpha(0,0)[3] = 0
 0: x[0] - beta(0,0) + 0.1466981770995943 alpha(0,0)[0]
   - 0.8533018229004057 alpha(0,0)[1] + 0.1466981770995943 alpha(0,0)[2]
   - 0.8533018229004057 alpha(0,0)[3] = 1
 (1,0)[0]: - x[1] + beta(1,0) - alpha(1,0)[0] + alpha(1,0)[1] = 0
 (1,0)[1]: - x[2] + beta(1,0) - alpha(1,0)[2] + alpha(1,0)[3] = 0
 1: x[1] - beta(1,0) + 0.1466981770995943 alpha(1,0)[0]
   - 0.8533018229004057 alpha(1,0)[1] + 0.1466981770995943 alpha(1,0)[2]
   - 0.8533018229004057 alpha(1,0)[3] = 1
 (2,0)[0]: - x[2] + beta(2,0) - alpha(2,0)[0] + alpha(2,0)[1] = 0
 (2,0)[1]: - x[3] + beta(2,0) - alpha(2,0)[2] + alpha(2,0)[3] = 0
 2: x[2] - beta(2,0) + 0.1466981770995943 alpha(2,0)[0]
   - 0.8533018229004057 alpha(2,0)[1] + 0.1466981770995943 alpha(2,0)[2]
   - 0.8533018229004057 alpha(2,0)[3] = 1
 (3,0)[0]: - x[3] + beta(3,0) - alpha(3,0)[0] + alpha(3,0)[1] = 0
 (3,0)[1]: - x[4] + beta(3,0) - alpha(3,0)[2] + alpha(3,0)[3] = 0
 3: x[3] - beta(3,0) + 0.1466981770995943 alpha(3,0)[0]
   - 0.8533018229004057 alpha(3,0)[1] + 0.1466981770995943 alpha(3,0)[2]
   - 0.8533018229004057 alpha(3,0)[3] = 1
 (4,0)[0]: - x[4] + beta(4,0) - alpha(4,0)[0] + alpha(4,0)[1] = 0
 (4,0)[1]: - x[5] + beta(4,0) - alpha(4,0)[2] + alpha(4,0)[3] = 0
 4: x[4] - beta(4,0) + 0.3753319548173535 alpha(4,0)[0]
   - 0.6913347118493132 alpha(4,0)[1] + 0.3086652881506868 alpha(4,0)[2]
   - 0.6246680451826465 alpha(4,0)[3] = 1
 (5,0)[0]: - x[5] + beta(5,0) - alpha(5,0)[0] + alpha(5,0)[1] = 0
 (5,0)[1]: - x[6] + beta(5,0) - alpha(5,0)[2] + alpha(5,0)[3] = 0
 5: x[5] - beta(5,0) + 0.3753319548173535 alpha(5,0)[0]
   - 0.6913347118493132 alpha(5,0)[1] + 0.3086652881506868 alpha(5,0)[2]
   - 0.6246680451826465 alpha(5,0)[3] = 1
 (6,0)[0]: - x[6] + beta(6,0) - alpha(6,0)[0] + alpha(6,0)[1] = 0
 (6,0)[1]: - x[7] + beta(6,0) - alpha(6,0)[2] + alpha(6,0)[3] = 0
 6: x[6] - beta(6,0) + 0.3753319548173535 alpha(6,0)[0]
   - 0.6913347118493132 alpha(6,0)[1] + 0.3086652881506868 alpha(6,0)[2]
   - 0.6246680451826465 alpha(6,0)[3] = 1
 (7,0)[0]: - x[7] + beta(7,0) - alpha(7,0)[0] + alpha(7,0)[1] = 0
 (7,0)[1]: - x[8] + beta(7,0) - alpha(7,0)[2] + alpha(7,0)[3] = 0
 7: x[7] - beta(7,0) + 0.3753319548173535 alpha(7,0)[0]
   - 0.6913347118493132 alpha(7,0)[1] + 0.3086652881506868 alpha(7,0)[2]
   - 0.6246680451826465 alpha(7,0)[3] = 1
 (8,0)[0]: - x[8] + beta(8,0) - alpha(8,0)[0] + alpha(8,0)[1] = 0
 (8,0)[1]: - x[9] + beta(8,0) - alpha(8,0)[2] + alpha(8,0)[3] = 0
 8: x[8] - beta(8,0) + 0.3753319548173535 alpha(8,0)[0]
   - 0.6913347118493132 alpha(8,0)[1] + 0.3086652881506868 alpha(8,0)[2]
   - 0.6246680451826465 alpha(8,0)[3] = 1
 (9,0)[0]: - x[9] + beta(9,0) - alpha(9,0)[0] + alpha(9,0)[1] = 0
 (9,0)[1]: - x[10] + beta(9,0) - alpha(9,0)[2] + alpha(9,0)[3] = 0
 9: x[9] - beta(9,0) + 0.1481602202117465 alpha(9,0)[0]
   - 0.6700215979700717 alpha(9,0)[1] + 0.3299784020299282 alpha(9,0)[2]
   - 0.8518397797882534 alpha(9,0)[3] = 1
 (10,0)[0]: - x[10] + beta(10,0) - alpha(10,0)[0] + alpha(10,0)[1] = 0
 (10,0)[1]: - x[11] + beta(10,0) - alpha(10,0)[2] + alpha(10,0)[3] = 0
 10: x[10] - beta(10,0) + 0.1481602202117465 alpha(10,0)[0]
   - 0.6700215979700717 alpha(10,0)[1] + 0.3299784020299282 alpha(10,0)[2]
   - 0.8518397797882534 alpha(10,0)[3] = 1
 (11,0)[0]: - x[11] + beta(11,0) - alpha(11,0)[0] + alpha(11,0)[1] = 0
 (11,0)[1]: - x[12] + beta(11,0) - alpha(11,0)[2] + alpha(11,0)[3] = 0
 11: x[11] - beta(11,0) + 0.1481602202117465 alpha(11,0)[0]
   - 0.6700215979700717 alpha(11,0)[1] + 0.3299784020299282 alpha(11,0)[2]
   - 0.8518397797882534 alpha(11,0)[3] = 1
 (12,0)[0]: - x[12] + beta(12,0) - alpha(12,0)[0] + alpha(12,0)[1] = 0
 (12,0)[1]: - x[13] + beta(12,0) - alpha(12,0)[2] + alpha(12,0)[3] = 0
 12: x[12] - beta(12,0) + 0.2129704792874588 alpha(12,0)[0]
   - 0.6203628540458745 alpha(12,0)[1] + 0.3796371459541254 alpha(12,0)[2]
   - 0.7870295207125411 alpha(12,0)[3] = 1
 13: x[13] = 0
Bounds
 beta(0,0) free
 beta(1,0) free
 beta(2,0) free
 beta(3,0) free
 beta(4,0) free
 beta(5,0) free
 beta(6,0) free
 beta(7,0) free
 beta(8,0) free
 beta(9,0) free
 beta(10,0) free
 beta(11,0) free
 beta(12,0) free
End
